Knapsack
1,4,8,16,
79.0, 264.0, 351.0, 326.0,
108.0, 267.0, 392.0, 702.0,
267.0, 529.0, 776.0, 1345.0,
2975.0, 3126.0, 3227.0, 4363.0,
10972.0, 7231.0, 11222.0, 11734.0,
39802.0, 94728.0, 88530.0, 40191.0,
458707.0, 504805.0, 609924.0, 519635.0